9
0, 544, 429, 608, 403, 200, 294, 282, 981
544, 0, 379, 427, 630, 526, 508, 666, 440
429, 379, 0, 178, 742, 276, 602, 683, 706
608, 427, 178, 0, 902, 449, 762, 857, 634
403, 630, 742, 902, 0, 592, 140, 173, 1036
200, 526, 276, 449, 592, 0, 467, 482, 932
294, 508, 602, 762, 140, 467, 0, 176, 931
282, 666, 683, 857, 173, 482, 176, 0, 1098
981, 440, 706, 634, 1036, 932, 931, 1098, 0
